200
1000
396
395
395
395
394
394
392
392
391
391
390
389
389
388
387
387
385
385
385
385
384
384
383
383
383
382
381
380
379
378
378
378
377
374
374
374
373
373
372
371
370
370
370
364
364
363
363
363
362
362
360
359
359
357
357
356
356
356
355
354
354
354
353
353
353
353
352
352
351
348
347
346
346
346
346
345
344
344
343
343
342
342
341
340
339
339
338
338
338
338
338
337
336
336
336
336
335
334
334
334
333
333
332
331
329
328
328
328
327
327
327
327
326
324
323
322
321
320
319
319
316
315
313
313
312
312
311
310
310
309
308
308
308
307
305
305
304
304
304
304
303
302
301
300
299
299
298
298
297
297
296
295
295
293
292
292
292
291
291
290
289
288
288
288
287
284
284
284
283
282
282
281
280
279
279
279
278
278
278
278
277
277
275
275
275
275
274
273
273
271
271
270
269
269
269
269
268
267
266
266
